0 4828
2 4744
3 4722
5 4718
9 4710
19 4704
24 4698
25 4637
27 4632
29 4593
36 4589
38 4588
53 4583
60 4568
63 4551
70 4545
71 4522
75 4514
80 4472
84 4448
97 4440
98 4432
101 4415
137 4408
138 4390
159 4373
208 4371
215 4360
228 4328
229 4290
244 4256
262 4255
265 4230
284 4227
539 4224
614 4222
624 4221
626 4208
637 4192
649 4164
731 4158
808 4156
1016 4152
1306 4149
1320 4147
1325 4146
1835 4134
1858 4133
1970 4131
2036 4130
2057 4126
2083 4125
2615 4121
2626 4118
2629 4106
2635 4102
3496 4100
3557 4097
3980 4096
4114 4081
6075 4078
6088 4073
6141 4068
6252 4063
6273 4053
6329 4044
6420 4043
